50 998
840 868 821 958 892 1153 244 706 878 1037 800 237 959 907 739 1071 1032 951 823 1141 1136 1056 999 1080 772 585 848 188 899 999 945 463 565 516 552 757 1133 837 1135 1145 894 178 953 992 742 408 1117 1075 434 620 
447 483 425 609 514 998 34 304 495 743 400 32 612 535 336 809 735 599 427 966 954 780 677 829 370 203 457 20 523 677 590 125 189 156 180 354 946 444 951 976 517 18 602 664 339 96 909 817 109 230 
